50 8
164 165
685 423
579 117
371 276
839 867
716 927
633 106
102 631
352 372
57 665
386 746
804 516
497 472
813 559
733 426
374 422
419 652
412 740
611 97
507 340
307 163
616 179
738 819
452 682
120 214
696 978
66 810
526 331
181 242
521 152
211 557
471 666
261 165
743 603
382 750
661 420
147 215
709 961
121 579
721 807
226 190
156 818
167 69
828 924
349 503
23 665
356 633
509 282
826 903
343 342
